(declare-rel inv2 (Int Int Int Int))
(declare-rel fail ())
(declare-var A Int)
(declare-var B Int)
(declare-var C Int)
(declare-var D Int)
(declare-var E Int)
(declare-var F Int)
(rule (=> (and (= F 0) (= E 5000) (= 10000 B) (= 5000 A)) (inv2 F E B A)))
(rule (let ((a!1 (and (inv2 F E B A) (= C (+ F 1)) (= D (ite (>= F A) (+ E 1) E)))))
  (=> a!1 (inv2 C D B A))))
(rule (=> (and (inv2 F E B A) (= F B) (not (= E F))) fail))
(query fail)

